125
[25,26,27,28,29,30,31,32,33,34,35,36,37,38,39,40,41,42,43,44,45,46,47,48,49,50,51,52,53,54,55,56,57,58,59,60,61,62,63,64,65,66,67,68,69,70,71,72,73,74,75,76,77,78,79,80,81,82,83,84,85,86,87]
[17,13,13,10,8,9,18,14,17,20,19,18,11,14,12,20,17,8,14,23,17,10,14,20,6,22,24,22,16,19,15,16,21,18,17,18,17,19,15,22,23,21,23,13,12,18,15,17,11,17,10,13,8,15,14,15,15,20,15,13,21,10,18]
